78232169939299002675013,5,1,2,05,12,1,2,01,1,1,2,03,15,1,2,015,1,1,2,05,15,1,2,01,10,1,2,015,4,1,2,01,6,1,2,08,13,1,2,03,5,1,2,012,11,1,2,012,15,1,2,03,3,1,2,012,3,1,2,02,2,1,2,06,8,1,2,012,9,1,2,08,15,1,2,010,10,1,2,01,14,1,2,015,2,1,2,08,15,1,2,06,15,1,2,01,15,1,2,09,8,1,2,02,5,1,2,011,11,1,2,02,12,1,2,02,14,1,2,010,4,1,2,03,3,1,2,08,1,1,2,06,11,1,2,06,6,1,2,011,3,1,2,04,2,1,2,05,12,1,2,015,4,1,2,01,4,1,2,06,2,1,2,014,12,1,2,07,13,1,2,08,9,1,2,010,11,1,2,04,4,1,2,01,8,1,2,01,15,1,2,01,1,1,2,02,12,1,2,0